\ENCODING=ISO-8859-1
\Problem name: IloCplex

Minimize
 obj1: 1958.84949276751 w_0_0 + 362.215405525497 w_0_1 + 373.630833845388 w_0_2
       + 412.310562561766 w_0_3 + 322.490309931942 w_0_4
       + 302.654919008431 w_0_5 + 380 w_0_6 + 320 w_0_7
       + 362.215405525497 w_0_8 + 401.995024844836 w_0_9
       + 335.261092284804 w_0_10 + 392.93765408777 w_0_11
       + 316.227766016838 w_0_12
Subject To
 packetCheck_1:       w_0_1  = 1
 packetCheck_2:       w_0_2  = 1
 packetCheck_3:       w_0_3  = 1
 packetCheck_4:       w_0_4  = 1
 packetCheck_5:       w_0_5  = 1
 packetCheck_6:       w_0_6  = 1
 packetCheck_7:       w_0_7  = 1
 packetCheck_8:       w_0_8  = 1
 packetCheck_9:       w_0_9  = 1
 packetCheck_10:      w_0_10  = 1
 packetCheck_11:      w_0_11  = 1
 packetCheck_12:      w_0_12  = 1
 packets_ofVehicle_0: 10 w_0_1 + 10 w_0_2 + 30 w_0_3 + 10 w_0_4 + 10 w_0_5
                      + 20 w_0_6 + 20 w_0_7 + 20 w_0_8 + 10 w_0_9 + 10 w_0_10
                      + 10 w_0_11 + 20 w_0_12 <= 200
Bounds
 0 <= w_0_0 <= 1
 0 <= w_0_1 <= 1
 0 <= w_0_2 <= 1
 0 <= w_0_3 <= 1
 0 <= w_0_4 <= 1
 0 <= w_0_5 <= 1
 0 <= w_0_6 <= 1
 0 <= w_0_7 <= 1
 0 <= w_0_8 <= 1
 0 <= w_0_9 <= 1
 0 <= w_0_10 <= 1
 0 <= w_0_11 <= 1
 0 <= w_0_12 <= 1
Binaries
 w_0_0  w_0_1  w_0_2  w_0_3  w_0_4  w_0_5  w_0_6  w_0_7  w_0_8  w_0_9  w_0_10 
 w_0_11  w_0_12 
End
